6 1 50 89 9 62 59 44 41 73 42 14 18 88 15 57 40 58 37 79 87 19 54 7 53 95 72 49 45 29 26 67 20 86 24 92 71 93 46 61 80 60 64 47 94 83 76 56 99 78 11 96 82 25 91 69 84 38 85 81 32 55 68 33 22 10 13 98 17 31 36 90 12 35 30 77 27 52 51 16 39 4 28 48 34 3 8 23 70 0 2 63 65 5 66 75 74 43 21 97 

